; These axioms are derived from the corresponding axioms of the prelude of
; Microsoft's Dafny tool by translating them from Boogie to SMT-LIB. Visit
; http://dafny.codeplex.com for more information about the Dafny verifier.
;
; A snapshot of the corresponding DafnyPrelude.bpl file including the date
; of the version and its copyright notices can be found in this directory.
;
; This file is subject to the terms of the Microsoft Public License
; (Ms-PL). A copy of the Ms-PL is provided in this directory (LICENCE.TXT)



; General sequence axioms

(assert (forall ((s $Seq<$S$>) ) (! (<= 0 ($Seq.length s))
  :pattern ( ($Seq.length s))
  )))
(assert (= ($Seq.length $Seq.empty<$S$>) 0))
(assert (forall ((s $Seq<$S$>) ) (! (=> (= ($Seq.length s) 0) (= s $Seq.empty<$S$>))
  :pattern ( ($Seq.length s))
  )))
(assert (forall ((t $S$) ) (! (= ($Seq.length ($Seq.singleton t)) 1)
  :pattern ( ($Seq.length ($Seq.singleton t)))
  )))
(assert (forall ((s $Seq<$S$>) (v $S$) ) (! (= ($Seq.length ($Seq.build s v)) (+ 1 ($Seq.length s)))
  :pattern ( ($Seq.length ($Seq.build s v)))
  )))
(assert (forall ((s $Seq<$S$>) (i Int) (v $S$) ) (! (and
  (=> (= i ($Seq.length s)) (= ($Seq.index ($Seq.build s v) i) v))
  (=> (not (= i ($Seq.length s))) (= ($Seq.index ($Seq.build s v) i) ($Seq.index s i))))
  :pattern ( ($Seq.index ($Seq.build s v) i))
  )))
(assert (forall ((s0 $Seq<$S$>) (s1 $Seq<$S$>) ) (!
  (implies ; The implication was not in the Dafny version
    (and
      (not (= s0 $Seq.empty<$S$>))
      (not (= s1 $Seq.empty<$S$>)))
    (=
      ($Seq.length ($Seq.append s0 s1))
      (+ ($Seq.length s0) ($Seq.length s1))))
  :pattern ( ($Seq.length ($Seq.append s0 s1)))
  )))
(assert (forall ((t $S$) ) (! (= ($Seq.index ($Seq.singleton t) 0) t)
  :pattern ( ($Seq.index ($Seq.singleton t) 0))
  )))
(assert (forall ((s $Seq<$S$>)) (! ; The axiom was not in the Dafny version
  (= ($Seq.append s $Seq.empty<$S$>) s)
  :pattern (($Seq.append s $Seq.empty<$S$>))
  )))
(assert (forall ((s $Seq<$S$>)) (! ; The axiom was not in the Dafny version
  (= ($Seq.append $Seq.empty<$S$> s) s)
  :pattern (($Seq.append $Seq.empty<$S$> s))
  )))
(assert (forall ((s0 $Seq<$S$>) (s1 $Seq<$S$>) (n Int) ) (!
  (implies ; The implication was not in the Dafny version
    (and
      (not (= s0 $Seq.empty<$S$>))
      (not (= s1 $Seq.empty<$S$>)))
    (and
      (=> (< n ($Seq.length s0)) (= ($Seq.index ($Seq.append s0 s1) n) ($Seq.index s0 n)))
      (=> (<= ($Seq.length s0) n) (= ($Seq.index ($Seq.append s0 s1) n) ($Seq.index s1 (- n ($Seq.length s0)))))))
  :pattern ( ($Seq.index ($Seq.append s0 s1) n))
  )))
(assert (forall ((s $Seq<$S$>) (i Int) (v $S$) ) (! (=> (and
  (<= 0 i)
  (< i ($Seq.length s))) (= ($Seq.length ($Seq.update s i v)) ($Seq.length s)))
  :pattern ( ($Seq.length ($Seq.update s i v)))
  )))
(assert (forall ((s $Seq<$S$>) (i Int) (v $S$) (n Int) ) (! (=> (and
  (<= 0 n)
  (< n ($Seq.length s))) (and
  (=> (= i n) (= ($Seq.index ($Seq.update s i v) n) v))
  (=> (not (= i n)) (= ($Seq.index ($Seq.update s i v) n) ($Seq.index s n)))))
  :pattern ( ($Seq.index ($Seq.update s i v) n))
  )))
(assert (forall ((s $Seq<$S$>) (x $S$) ) (!
  (and
    (=>
      ($Seq.contains s x)
      (exists ((i Int) ) (!
        (and
  (<= 0 i)
  (< i ($Seq.length s))
  (= ($Seq.index s i) x))
  :pattern ( ($Seq.index s i))
  )))
    (=>
      (exists ((i Int) ) (!
        (and
  (<= 0 i)
  (< i ($Seq.length s))
  (= ($Seq.index s i) x))
  :pattern ( ($Seq.index s i))
      ))
      ($Seq.contains s x)))
  :pattern ( ($Seq.contains s x))
  )))
(assert (forall ((x $S$) ) (! (not ($Seq.contains $Seq.empty<$S$> x))
  :pattern ( ($Seq.contains $Seq.empty<$S$> x))
  )))
(assert (forall ((s0 $Seq<$S$>) (s1 $Seq<$S$>) (x $S$) ) (! (and
  (=> ($Seq.contains ($Seq.append s0 s1) x) (or
  ($Seq.contains s0 x)
  ($Seq.contains s1 x)))
  (=> (or
  ($Seq.contains s0 x)
  ($Seq.contains s1 x)) ($Seq.contains ($Seq.append s0 s1) x)))
  :pattern ( ($Seq.contains ($Seq.append s0 s1) x))
  )))
(assert (forall ((s $Seq<$S$>) (v $S$) (x $S$) ) (! (and
  (=> ($Seq.contains ($Seq.build s v) x) (or
  (= v x)
  ($Seq.contains s x)))
  (=> (or
  (= v x)
  ($Seq.contains s x)) ($Seq.contains ($Seq.build s v) x)))
  :pattern ( ($Seq.contains ($Seq.build s v) x))
  )))
(assert (forall ((s $Seq<$S$>) (n Int) (x $S$) ) (!
  (and
    (=>
      ($Seq.contains ($Seq.take s n) x)
      (exists ((i Int) ) (!
        (and
  (<= 0 i)
  (< i n)
  (< i ($Seq.length s))
  (= ($Seq.index s i) x))
  :pattern ( ($Seq.index s i))
  )))
    (=>
      (exists ((i Int) ) (!
        (and
  (<= 0 i)
  (< i n)
  (< i ($Seq.length s))
  (= ($Seq.index s i) x))
  :pattern ( ($Seq.index s i))
      ))
      ($Seq.contains ($Seq.take s n) x)))
  :pattern ( ($Seq.contains ($Seq.take s n) x))
  )))
(assert (forall ((s $Seq<$S$>) (n Int) (x $S$) ) (!
  (and
    (=>
      ($Seq.contains ($Seq.drop s n) x)
      (exists ((i Int) ) (!
        (and
  (<= 0 n)
  (<= n i)
  (< i ($Seq.length s))
  (= ($Seq.index s i) x))
  :pattern ( ($Seq.index s i))
  )))
    (=>
      (exists ((i Int) ) (!
        (and
  (<= 0 n)
  (<= n i)
  (< i ($Seq.length s))
  (= ($Seq.index s i) x))
  :pattern ( ($Seq.index s i))
      ))
      ($Seq.contains ($Seq.drop s n) x)))
  :pattern ( ($Seq.contains ($Seq.drop s n) x))
  )))
(assert (forall ((s0 $Seq<$S$>) (s1 $Seq<$S$>) ) (! (and
  (=> ($Seq.equal s0 s1) (and
  (= ($Seq.length s0) ($Seq.length s1))
  (forall ((j Int) ) (! (=> (and
  (<= 0 j)
  (< j ($Seq.length s0))) (= ($Seq.index s0 j) ($Seq.index s1 j)))
  :pattern ( ($Seq.index s0 j))
  :pattern ( ($Seq.index s1 j))
  ))))
  (=> (and
  (= ($Seq.length s0) ($Seq.length s1))
  (forall ((j Int) ) (! (=> (and
  (<= 0 j)
  (< j ($Seq.length s0))) (= ($Seq.index s0 j) ($Seq.index s1 j)))
  :pattern ( ($Seq.index s0 j))
  :pattern ( ($Seq.index s1 j))
  ))) ($Seq.equal s0 s1)))
  :pattern ( ($Seq.equal s0 s1))
  )))
(assert (forall ((a $Seq<$S$>) (b $Seq<$S$>) ) (! (=> ($Seq.equal a b) (= a b))
  :pattern ( ($Seq.equal a b))
  )))
(assert (forall ((s0 $Seq<$S$>) (s1 $Seq<$S$>) (n Int) ) (! (and
  (=> ($Seq.sameuntil s0 s1 n) (forall ((j Int) ) (! (=> (and
  (<= 0 j)
  (< j n)) (= ($Seq.index s0 j) ($Seq.index s1 j)))
  :pattern ( ($Seq.index s0 j))
  :pattern ( ($Seq.index s1 j))
  )))
  (=> (forall ((j Int) ) (! (=> (and
  (<= 0 j)
  (< j n)) (= ($Seq.index s0 j) ($Seq.index s1 j)))
  :pattern ( ($Seq.index s0 j))
  :pattern ( ($Seq.index s1 j))
  )) ($Seq.sameuntil s0 s1 n)))
  :pattern ( ($Seq.sameuntil s0 s1 n))
  )))
(assert (forall ((s $Seq<$S$>) (n Int) ) (! (=> (<= 0 n) (and
  (=> (<= n ($Seq.length s)) (= ($Seq.length ($Seq.take s n)) n))
  (=> (< ($Seq.length s) n) (= ($Seq.length ($Seq.take s n)) ($Seq.length s)))))
  :pattern ( ($Seq.length ($Seq.take s n)))
  )))
(assert (forall ((s $Seq<$S$>) (n Int) (j Int) ) (! (=> (and
  (<= 0 j)
  (< j n)
  (< j ($Seq.length s))) (= ($Seq.index ($Seq.take s n) j) ($Seq.index s j)))
  :pattern ( ($Seq.index ($Seq.take s n) j))
  :pattern (($Seq.index s j) ($Seq.take s n)) ; [XXX] Added 29-10-2015
;  :weight 25
  )))
(assert (forall ((s $Seq<$S$>) (n Int) ) (! (=> (<= 0 n) (and
  (=> (<= n ($Seq.length s)) (= ($Seq.length ($Seq.drop s n)) (- ($Seq.length s) n)))
  (=> (< ($Seq.length s) n) (= ($Seq.length ($Seq.drop s n)) 0))))
  :pattern ( ($Seq.length ($Seq.drop s n)))
  )))
(assert (forall ((s $Seq<$S$>) (n Int) (j Int) ) (! (=> (and
  (<= 0 n)
  (<= 0 j)
  (< j (- ($Seq.length s) n))) (= ($Seq.index ($Seq.drop s n) j) ($Seq.index s (+ j n))))
  :pattern ( ($Seq.index ($Seq.drop s n) j))
;  :weight 25
  )))
(assert (forall ((s $Seq<$S$>) (n Int) (k Int) ) (! ; [XXX] Added 29-10-2015
  (=>
    (and
      (<= 0 n)
      (<= n k)
      (< k ($Seq.length s)))
    (=
      ($Seq.index ($Seq.drop s n) (- k n))
      ($Seq.index s k)))
  :pattern (($Seq.index s k) ($Seq.drop s n))
;  :weight 25
  )))
;(assert (forall ((s $Seq<$S$>) (t $Seq<$S$>) ) (!
;  (and
;    (= ($Seq.drop ($Seq.append s t) ($Seq.length s)) t)
;    (= ($Seq.take ($Seq.append s t) ($Seq.length s)) s))
;  :pattern ((= ($Seq.take ($Seq.append s t) ($Seq.length s)) s))
;  :pattern (($Seq.drop ($Seq.append s t) ($Seq.length s)))
;  )))
(assert (forall ((s $Seq<$S$>) (i Int) (v $S$) (n Int) ) (! (=> (and
  (<= 0 i)
  (< i n)
  (<= n ($Seq.length s))) (= ($Seq.take ($Seq.update s i v) n) ($Seq.update ($Seq.take s n) i v)))
  :pattern ( ($Seq.take ($Seq.update s i v) n))
  )))
(assert (forall ((s $Seq<$S$>) (i Int) (v $S$) (n Int) ) (! (=> (and
  (<= n i)
  (< i ($Seq.length s))) (= ($Seq.take ($Seq.update s i v) n) ($Seq.take s n)))
  :pattern ( ($Seq.take ($Seq.update s i v) n))
  )))
(assert (forall ((s $Seq<$S$>) (i Int) (v $S$) (n Int) ) (! (=> (and
  (<= 0 n)
  (<= n i)
  (< i ($Seq.length s))) (= ($Seq.drop ($Seq.update s i v) n) ($Seq.update ($Seq.drop s n) (- i n) v)))
  :pattern ( ($Seq.drop ($Seq.update s i v) n))
  )))
(assert (forall ((s $Seq<$S$>) (i Int) (v $S$) (n Int) ) (! (=> (and
  (<= 0 i)
  (< i n)
  (< n ($Seq.length s))) (= ($Seq.drop ($Seq.update s i v) n) ($Seq.drop s n)))
  :pattern ( ($Seq.drop ($Seq.update s i v) n))
  )))
(assert (forall ((s $Seq<$S$>) (v $S$) (n Int) ) (! (=> (and
  (<= 0 n)
  (<= n ($Seq.length s))) (= ($Seq.drop ($Seq.build s v) n) ($Seq.build ($Seq.drop s n) v)))
  :pattern ( ($Seq.drop ($Seq.build s v) n))
  )))
;(assert (forall ((s $Seq<$S$>) (n Int) ) (! (=> (= n 0) (= ($Seq.drop s n) s))
;  :pattern ( ($Seq.drop s n))
;  )))
;(assert (forall ((s $Seq<$S$>) (n Int) ) (! (=> (= n 0) (= ($Seq.take s n) $Seq.empty<$S$>))
;  :pattern ( ($Seq.take s n))
;  )))
;(assert (forall ((s $Seq<$S$>) (m Int) (n Int) ) (! (=> (and
;  (<= 0 m)
;  (<= 0 n)
;  (<= (+ m n) ($Seq.length s))) (= ($Seq.drop ($Seq.drop s m) n) ($Seq.drop s (+ m n))))
;  :pattern ( ($Seq.drop ($Seq.drop s m) n))
;  )))
(assert (forall ((x $S$) (y $S$)) (!
  (iff
    ($Seq.contains ($Seq.singleton x) y)
    (= x y))
  :pattern (($Seq.contains ($Seq.singleton x) y))
  )))
